1690
9 95 25 57 10 93 96 22 53 73 90 71 23 63 26 34 76 45 28 24 72 16 77 69 27 35 67 47 65 84 37 79 92 13 80 94 46 68 74 14 29 58 55 12 42 20 39 60 97 1 50 62 99 59 61 18 49 66 51 44 3 31 88 86 40 30 33 15 32 43 52 64 83 91 7 38 48 89 56 8 54 87 75 36 82 2 4 17 98 70 11 41 85 81 6 21 19 5 78 
